62013 15081
50755 17944
2985 60975
64318 52615
63935 43014
27015 19225
36217 1316
40912 20588
37111 37795
46134 27191
52117 30761
19562 53427
60524 23287
8583 54302
41706 53293
33610 24473
11477 38568
7852 26045
23077 26120
30960 21642
53623 17658
33665 3032
45457 35679
4245 56240
51325 28631
61918 62010
56903 50285
22037 11827
